Minimize
err

Subject To
itr_1 - itr_2 > 1
itr_2 - itr_3 > 1
itr_3 - itr_4 > 1
itr_4 - itr_5 > 1
itr_5 - itr_6 > 1
itr_6 - itr_7 > 1
itr_7 - itr_8 > 1
itr_8 - itr_9 > 1
itr_9 - itr_10 > 1
itr_10 - itr_11 > 1
itr_11 - itr_12 > 1
itr_12 - itr_13 > 1
itr_13 - itr_14 > 1
itr_14 - itr_15 > 1
itr_15 - itr_16 > 1
itr_16 - itr_17 > 1
itr_17 - itr_18 > 1
itr_18 - itr_19 > 1
itr_19 - itr_20 > 1
itr_20 - itr_21 > 1
itr_21 - itr_22 > 1
itr_22 - itr_23 > 1
itr_23 - itr_24 > 1
itr_24 - itr_25 > 1
probe0_1 - probe0_2 > 1
probe0_2 - probe0_3 > 1
probe0_3 - probe0_4 > 1
probe0_4 - probe0_5 > 1
probe0_5 - probe0_6 > 1
probe0_6 - probe0_7 > 1
probe0_7 - probe0_8 > 1
probe0_8 - probe0_9 > 1
probe0_9 - probe0_10 > 1
probe_1 - probe_2 > 1
probe_2 - probe_3 > 1
probe_3 - probe_4 > 1
probe_4 - probe_5 > 1
probe_5 - probe_6 > 1
probe_6 - probe_7 > 1
probe_7 - probe_8 > 1
probe_8 - probe_9 > 1
hash_1 - hash_2 > 1
hash_2 - hash_3 > 1
hash_3 - hash_4 > 1

hash_1 + itr_1 + probe_1 >= 244.786

hash_1 + itr_1 + probe_1 - 244.786
 err <= 244.786

hash_4 + itr_5 + probe_1 >= 217.429

hash_4 + itr_5 + probe_1 - 217.429
 err <= 217.429

hash_1 + itr_3 + probe_1 >= 243.357

hash_1 + itr_3 + probe_1 - 243.357
 err <= 243.357

hash_1 + itr_10 + probe_7 >= 228.286

hash_1 + itr_10 + probe_7 - 228.286
 err <= 228.286

hash_1 + itr_4 + probe_7 >= 227.143

hash_1 + itr_4 + probe_7 - 227.143
 err <= 227.143

hash_2 + itr_9 + probe_6 >= 224

hash_2 + itr_9 + probe_6 - 224
 err <= 224

hash_2 + itr_1 + probe_3 >= 229.071

hash_2 + itr_1 + probe_3 - 229.071
 err <= 229.071

hash_1 + itr_3 + probe_3 >= 236.786

hash_1 + itr_3 + probe_3 - 236.786
 err <= 236.786

hash_1 + itr_11 + probe_9 >= 219.429

hash_1 + itr_11 + probe_9 - 219.429
 err <= 219.429

probe0_1 + probe0_3 - 2 probe0_2 = 0
probe0_2 + probe0_4 - 2 probe0_3 = 0
probe0_3 + probe0_5 - 2 probe0_4 = 0
probe0_4 + probe0_6 - 2 probe0_5 = 0
probe0_5 + probe0_7 - 2 probe0_6 = 0
probe0_6 + probe0_8 - 2 probe0_7 = 0
probe0_7 + probe0_9 - 2 probe0_8 = 0
probe0_8 + probe0_10 - 2 probe0_9 = 0
probe_1 + probe_3 - 2 probe_2 = 0
probe_3 + probe_5 - 2 probe_4 = 0
probe_4 + probe_6 - 2 probe_5 = 0
probe_7 + probe_9 - 2 probe_8 = 0
itr_1 + itr_3 - 2 itr_2 = 0
itr_5 + itr_7 - 2 itr_6 = 0
itr_6 + itr_8 - 2 itr_7 = 0
itr_7 + itr_9 - 2 itr_8 = 0
itr_11 + itr_13 - 2 itr_12 = 0
itr_12 + itr_14 - 2 itr_13 = 0
itr_13 + itr_15 - 2 itr_14 = 0
itr_14 + itr_16 - 2 itr_15 = 0
itr_15 + itr_17 - 2 itr_16 = 0
itr_16 + itr_18 - 2 itr_17 = 0
itr_17 + itr_19 - 2 itr_18 = 0
itr_18 + itr_20 - 2 itr_19 = 0
itr_19 + itr_21 - 2 itr_20 = 0
itr_20 + itr_22 - 2 itr_21 = 0
itr_21 + itr_23 - 2 itr_22 = 0
itr_22 + itr_24 - 2 itr_23 = 0
itr_23 + itr_25 - 2 itr_24 = 0
hash_2 + hash_4 - 2 hash_3 = 0
End